==> MAXTIME              = 3600
==> OUTPUTLOG            = 1
==> GOMCUTS              = 2
FICO Xpress v8.5.9, solve started 23:39:06, Jun 8, 2019
Maximizing MILP Seating model
Original problem has:
       230 rows          300 cols         7440 elements       300 globals
Presolved problem has:
       103 rows          204 cols         2431 elements       198 globals
LP relaxation tightened
Will try to keep branch and bound tree memory usage below 7.2GB
 *** Heuristic solution found:    22.000000      Time: 0 ***
Starting concurrent solve with dual

 Concurrent-Solve,   0s
            Dual        
    objective   dual inf
 D  102.00000   .0000000
------- optimal --------
Concurrent statistics:
      Dual: 34 simplex iterations, 0.00s
Optimal solution found
 
   Its         Obj Value      S   Ninf  Nneg   Sum Dual Inf  Time
    34        102.000000      D      0     0        .000000     0
Dual solved problem
  34 simplex iterations in 0s

Final objective                         : 1.020000000000000e+02
  Max primal violation      (abs / rel) : 1.110e-16 / 9.869e-17
  Max dual violation        (abs / rel) :       0.0 /       0.0
  Max complementarity viol. (abs / rel) :       0.0 /       0.0
All values within tolerances

Starting root cutting & heuristics
 
 Its Type    BestSoln    BestBound   Sols    Add    Del     Gap     GInf   Time
   1  K     22.000000   102.000000      1     99      0   78.43%      29      0
   2  K     22.000000   102.000000      1     97     81   78.43%      43      0
   3  K     22.000000   102.000000      1     81     93   78.43%      36      0
   4  K     22.000000   102.000000      1     86     75   78.43%      31      0
   5  K     22.000000   102.000000      1     98     89   78.43%      52      0
   6  K     22.000000   102.000000      1     96     95   78.43%      48      0
   7  K     22.000000   102.000000      1     85     89   78.43%      57      0
   8  K     22.000000   102.000000      1     87     79   78.43%      55      0
   9  K     22.000000   102.000000      1    104     90   78.43%      50      0
  10  K     22.000000   102.000000      1    111    100   78.43%      71      0
  11  K     22.000000   102.000000      1     86    108   78.43%      58      0
  12  K     22.000000   102.000000      1    110     78   78.43%      79      0
  13  K     22.000000   102.000000      1     81    106   78.43%      77      0
  14  K     22.000000   102.000000      1    100     89   78.43%      66      0
  15  K     22.000000   102.000000      1    100     94   78.43%      75      0
b           32.000000   102.000000      2                 68.63%       0      0
  16  K     32.000000   102.000000      2     96    112   68.63%      55      0
  17  K     32.000000   102.000000      2    105     87   68.63%      74      0
  18  K     32.000000   102.000000      2    106    101   68.63%      74      0
  19  K     32.000000   102.000000      2    101    107   68.63%      77      0
  20  K     32.000000   102.000000      2     89    165   68.63%      90      0
Heuristic search started
R           37.000000   102.000000      3                 63.73%       0      0
R           45.000000   102.000000      4                 55.88%       0      0
Heuristic search stopped
 
Cuts in the matrix         : 80
Cut elements in the matrix : 1840
 
Starting tree search.
Deterministic mode with up to 4 running threads and up to 8 tasks.
 
    Node     BestSoln    BestBound   Sols Active  Depth     Gap     GInf   Time
       1    45.000000   102.000000      4      2      1   55.88%      63      0
       2    45.000000   102.000000      4      2      2   55.88%      71      0
       3    45.000000   102.000000      4      2      2   55.88%      56      0
       4    45.000000   102.000000      4      2      3   55.88%      66      0
       5    45.000000   102.000000      4      2      4   55.88%      56      0
       6    45.000000   102.000000      4      5      3   55.88%      54      0
       7    45.000000   102.000000      4      5      5   55.88%      47      0
       8    45.000000   102.000000      4      5      4   55.88%      41      0
       9    45.000000   102.000000      4      8      6   55.88%      48      0
      10    45.000000   102.000000      4      8      5   55.88%      21      0
      22    45.000000   102.000000      4     14     11   55.88%      47      1
      36    45.000000   102.000000      4     14     16   55.88%      30      1
      49    45.000000   102.000000      4     14     23   55.88%      33      1
      62    45.000000   102.000000      4     14     26   55.88%      53      1
      75    45.000000   102.000000      4     14     32   55.88%      50      1
      87    45.000000   102.000000      4     14     46   55.88%      22      1
     104    45.000000   102.000000      4     14     53   55.88%      12      1
     209    45.000000   102.000000      4     64     67   55.88%      43      1
     313    45.000000   102.000000      4    131     26   55.88%      30      1
B&B tree size: 1.7MB total
 
    Node     BestSoln    BestBound   Sols Active  Depth     Gap     GInf   Time
     415    45.000000   102.000000      4    131     69   55.88%      11      1
a    450    46.000000   102.000000      5    131     45   54.90%       0      1
     534    46.000000   102.000000      5    131     45   54.90%      16      1
     646    46.000000   102.000000      5    131     63   54.90%      27      2
     761    46.000000   102.000000      5    131     76   54.90%      21      2
a    881    53.000000   102.000000      6    131     51   48.04%       0      2
     883    53.000000   102.000000      6    131     51   48.04%       3      2
     984    53.000000   102.000000      6    131     51   48.04%      39      2
    1107    53.000000   102.000000      6    131     51   48.04%      30      2
    1209    53.000000   102.000000      6    131     64   48.04%      36      2
    1331    53.000000   102.000000      6    131     57   48.04%      20      2
    1439    53.000000   102.000000      6    131     14   48.04%      41      2
    1542    53.000000   102.000000      6    131     70   48.04%      24      2
    1670    53.000000   102.000000      6    324      1   48.04%       1      2
    1776    53.000000   102.000000      6    324     43   48.04%      12      3
a   1879    54.000000   102.000000      7    557     34   47.06%       0      3
    1882    54.000000   102.000000      7    557     33   47.06%       8      3
    1988    54.000000   102.000000      7    557     59   47.06%      31      3
    2092    54.000000   102.000000      7    557     70   47.06%      36      3
    2195    54.000000   102.000000      7    697     53   47.06%      55      3
B&B tree size: 7.6MB total
 
    Node     BestSoln    BestBound   Sols Active  Depth     Gap     GInf   Time
    2307    54.000000   102.000000      7    697     51   47.06%      38      3
    2408    54.000000   102.000000      7    697     68   47.06%      34      3
    2532    54.000000   102.000000      7    697     52   47.06%      15      3
    2634    54.000000   102.000000      7    871      1   47.06%       1      3
    2750    54.000000   102.000000      7   1082      1   47.06%       1      3
    2855    54.000000   102.000000      7   1082     64   47.06%      52      3
    2967    54.000000   102.000000      7   1323      1   47.06%       1      3
    3082    54.000000   102.000000      7   1323     57   47.06%      37      3
    3192    54.000000   102.000000      7   1323     78   47.06%      29      3
    3294    54.000000   102.000000      7   1323     27   47.06%      27      3
    3394    54.000000   102.000000      7   1323     52   47.06%      48      4
    3507    54.000000   102.000000      7   1323     67   47.06%      35      4
    3608    54.000000   102.000000      7   1323     71   47.06%      61      4
    3714    54.000000   102.000000      7   1323     88   47.06%      25      4
    3818    54.000000   102.000000      7   1323     26   47.06%      29      4
    3922    54.000000   102.000000      7   1323     64   47.06%      30      4
    4037    54.000000   102.000000      7   1323     74   47.06%      36      4
    4138    54.000000   102.000000      7   1323     59   47.06%      45      4
    4247    54.000000   102.000000      7   1323     66   47.06%      37      4
    4356    54.000000   102.000000      7   1323     62   47.06%      25      4
B&B tree size: 12MB total
 
    Node     BestSoln    BestBound   Sols Active  Depth     Gap     GInf   Time
    4457    54.000000   102.000000      7   1323     64   47.06%      49      4
    4559    54.000000   102.000000      7   1323     62   47.06%      22      4
    4679    54.000000   102.000000      7   1323     80   47.06%      28      4
    4780    54.000000   102.000000      7   1323     43   47.06%      54      5
    4886    54.000000   102.000000      7   1323     71   47.06%      34      5
    4991    54.000000   102.000000      7   1323     57   47.06%      42      5
    5110    54.000000   102.000000      7   1323     42   47.06%      14      5
    5226    54.000000   102.000000      7   1323     45   47.06%      32      5
    5340    54.000000   102.000000      7   1323     52   47.06%      20      5
    5442    54.000000   102.000000      7   1323     62   47.06%      20      5
    5550    54.000000   102.000000      7   1323     46   47.06%      30      5
    5660    54.000000   102.000000      7   1323     64   47.06%      32      5
    5765    54.000000   102.000000      7   1323     70   47.06%      29      5
    5867    54.000000   102.000000      7   1323     60   47.06%      25      5
    5979    54.000000   102.000000      7   1323     82   47.06%      16      5
    6098    54.000000   102.000000      7   1598      1   47.06%       1      6
    6204    54.000000   102.000000      7   1854     64   47.06%      37      6
    6306    54.000000   102.000000      7   1854     51   47.06%      41      6
    6415    54.000000   102.000000      7   1854     55   47.06%      35      6
    6516    54.000000   102.000000      7   1854     49   47.06%      62      6
B&B tree size: 17MB total
 
    Node     BestSoln    BestBound   Sols Active  Depth     Gap     GInf   Time
*   6546    58.000000   102.000000      8   1854     60   43.14%       0      6
    6620    58.000000   102.000000      8   1854     77   43.14%      12      6
    6720    58.000000   102.000000      8   1854     17   43.14%      42      6
    6826    58.000000   102.000000      8   1854     26   43.14%      25      6
    6935    58.000000   102.000000      8   1854     15   43.14%      33      6
    7092    58.000000   102.000000      8   2029      1   43.14%       1      6
    7200    58.000000   102.000000      8   2029     50   43.14%      44      6
    7314    58.000000   102.000000      8   2429     39   43.14%      18      6
    7421    58.000000   102.000000      8   2429     24   43.14%      35      6
    7527    58.000000   102.000000      8   2429     35   43.14%      27      6
    7638    58.000000   102.000000      8   2429     76   43.14%      27      7
    7776    58.000000   102.000000      8   2827      1   43.14%       1      7
    7887    58.000000   102.000000      8   3092      1   43.14%       1      7
    8004    58.000000   102.000000      8   3092     27   43.14%      21      7
    8112    58.000000   102.000000      8   3092     37   43.14%      42      7
    8219    58.000000   102.000000      8   3092     77   43.14%      18      7
    8319    58.000000   102.000000      8   3092     72   43.14%       8      7
    8432    58.000000    99.660946      8   3456     68   41.80%      27      7
    8551    58.000000    99.660946      8   3456     75   41.80%      27      7
    8670    58.000000    99.660946      8   3456     63   41.80%      17      7
B&B tree size: 21MB total
 
    Node     BestSoln    BestBound   Sols Active  Depth     Gap     GInf   Time
    8787    58.000000    99.660946      8   3456     58   41.80%      24      7
    8900    58.000000    99.660946      8   3894     65   41.80%       9      7
    9002    58.000000    99.660946      8   3894     69   41.80%      27      7
    9119    58.000000    99.660946      8   3894     64   41.80%      12      7
    9225    58.000000    99.660946      8   4032     43   41.80%      43      7
    9329    58.000000    99.660946      8   4032     48   41.80%      26      7
    9431    58.000000    99.660946      8   4032     56   41.80%      25      7
    9538    58.000000    99.660946      8   4171     63   41.80%      20      8
    9638    58.000000    99.660946      8   4171     51   41.80%      35      8
    9738    58.000000    99.660946      8   4171     45   41.80%      32      8
    9851    58.000000    99.660946      8   4171     48   41.80%      19      8
    9961    58.000000    99.660946      8   4171     63   41.80%      15      8
   10063    58.000000    99.660946      8   4313     65   41.80%      36      8
   11065    58.000000    96.000000      8   4841     30   39.58%      26      8
   12065    58.000000    96.000000      8   4848     73   39.58%      40      9
R  13040    59.000000    93.709186      9   5321     29   37.04%       0     10
   13069    59.000000    93.709186      9   5321     20   37.04%      44     10
   14087    59.000000    93.709186      9   5621     51   37.04%      20     10
a  14135    60.000000    93.709186     10   5621     72   35.97%       0     11
   15110    60.000000    91.743760     10   5732     61   34.60%      21     11
B&B tree size: 28MB total
 
    Node     BestSoln    BestBound   Sols Active  Depth     Gap     GInf   Time
   16122    60.000000    90.000000     10   6060     79   33.33%      30     12
   17133    60.000000    89.933333     10   6383     32   33.28%      40     12
   18152    60.000000    88.599411     10   6557     64   32.28%      26     13
   19176    60.000000    88.507699     10   6796     64   32.21%      29     14
   20194    60.000000    88.000000     10   7210     36   31.82%      22     14
   21196    60.000000    88.000000     10   7672     41   31.82%      24     15
   22201    60.000000    88.000000     10   8077     37   31.82%      25     15
   23209    60.000000    88.000000     10   8431     49   31.82%      36     16
   24218    60.000000    88.000000     10   8588     81   31.82%      38     16
   25218    60.000000    87.513255     10   8901      1   31.44%       1     17
   26225    60.000000    86.635472     10   9163     30   30.74%      51     18
   27229    60.000000    86.466023     10   9360     61   30.61%      35     18
   28230    60.000000    86.466023     10   9510     44   30.61%      34     19
   29232    60.000000    85.721106     10   9816     79   30.01%      25     19
   30237    60.000000    85.525030     10   9997     50   29.85%      40     20
   31237    60.000000    85.057611     10  10322     35   29.46%      27     21
   32239    60.000000    85.000000     10  10566     76   29.41%      35     22
   33251    60.000000    85.000000     10  10834     26   29.41%      36     22
   34263    60.000000    85.000000     10  11001     58   29.41%      23     23
   35266    60.000000    85.000000     10  11202     15   29.41%      42     23
B&B tree size: 54MB total
 
    Node     BestSoln    BestBound   Sols Active  Depth     Gap     GInf   Time
   36278    60.000000    84.779496     10  11283     80   29.23%      32     24
   37282    60.000000    84.347088     10  11715     72   28.87%      24     25
   38283    60.000000    84.076875     10  11865     31   28.64%      17     25
   39286    60.000000    84.000000     10  12148     41   28.57%       9     26
   40288    60.000000    84.000000     10  12297     76   28.57%      25     27
   41295    60.000000    83.620424     10  12559     56   28.25%      39     27
   42303    60.000000    83.313019     10  12698     30   27.98%      15     28
   43316    60.000000    83.213622     10  12831     49   27.90%      28     29
   44324    60.000000    83.055556     10  13035      1   27.76%       1     29
   45325    60.000000    83.000000     10  13321     34   27.71%       8     30
   46333    60.000000    83.000000     10  13487     19   27.71%      30     30
   47364    60.000000    82.862683     10  13607     45   27.59%      22     31
   48383    60.000000    82.593192     10  13721     29   27.35%      13     31
   49400    60.000000    82.488308     10  13841     49   27.26%      30     32
   50414    60.000000    82.000000     10  14048     35   26.83%      27     33
   51431    60.000000    82.000000     10  14178     49   26.83%      27     34
   52439    60.000000    82.000000     10  14510     49   26.83%      28     34
   53459    60.000000    82.000000     10  14819     53   26.83%      17     35
   54461    60.000000    82.000000     10  14956     41   26.83%      22     36
   55466    60.000000    82.000000     10  15246     57   26.83%      24     36
B&B tree size: 74MB total
 
    Node     BestSoln    BestBound   Sols Active  Depth     Gap     GInf   Time
   56471    60.000000    82.000000     10  15380     49   26.83%      46     37
   57472    60.000000    82.000000     10  15544     73   26.83%      24     37
   58475    60.000000    82.000000     10  15762     50   26.83%      52     38
   59501    60.000000    81.736252     10  15869     29   26.59%      29     38
   60515    60.000000    81.596184     10  16034     44   26.47%      19     39
   61526    60.000000    81.445869     10  16127     46   26.33%      31     40
   62527    60.000000    81.200843     10  16291     31   26.11%      43     40
   63533    60.000000    81.000000     10  16401     29   25.93%      14     41
   64540    60.000000    81.000000     10  16469     38   25.93%      32     42
   65551    60.000000    81.000000     10  16583     64   25.93%      24     43
   66552    60.000000    81.000000     10  16656     61   25.93%      30     43
   67560    60.000000    81.000000     10  16749     48   25.93%      21     44
   68564    60.000000    80.776332     10  17042     66   25.72%      26     45
   69570    60.000000    80.600000     10  17209     56   25.56%      18     45
   70578    60.000000    80.488299     10  17311     57   25.46%      40     46
   71599    60.000000    80.320912     10  17471     54   25.30%      19     46
   72612    60.000000    80.256261     10  17554     42   25.24%      17     47
   73628    60.000000    80.000000     10  17655     58   25.00%      29     48
   74633    60.000000    80.000000     10  17729     77   25.00%      36     48
   75636    60.000000    79.971158     10  17742     30   24.97%      34     49
B&B tree size: 88MB total
 
    Node     BestSoln    BestBound   Sols Active  Depth     Gap     GInf   Time
   76640    60.000000    79.766790     10  17929     53   24.78%      29     50
   77652    60.000000    79.690541     10  18043     62   24.71%      42     50
   78660    60.000000    79.292006     10  18197     53   24.33%      36     51
   79660    60.000000    79.292006     10  18201     26   24.33%      18     51
User interrupt (9) triggered.
 *** Search unfinished ***    Time:    52 Nodes:      79985
Number of integer feasible solutions found is 10
Best integer solution found is    60.000000
Best bound is    79.214727
